
%FILE DATA:	Soccer Computational Problem for MiniZinc Models	%
%AUTHOR:	Jack Wall	%
%CONTACT:  	116397063@umail.ucc.ie			%
%LAST UPDATE:	03/19/2020, 20:58:59						%
%DESCRIPTION: 	270 games played with 36 games left				%


n=18; %number of teams

%Games to play
games=[|16,5|18,6|2,5|18,11|18,10|16,3|8,2|6,17|15,14|9,5|8,3|4,18|17,9|6,9|6,16|12,16|13,2|5,9|12,9|13,15|5,3|3,7|7,14|2,14|16,10|1,5|18,4|9,14|14,2|17,14|12,4|18,5|6,14|3,17|12,13|2,11|];

%Initial points
iPoints=[48,43,29,52,30,26,42,44,30,40,50,44,43,42,32,47,45,41];

%POSITION CONSTRAINTS
% [|teamID, operator, position|...]
% operators index:
%  1 for =  operator
%  2 for >  operator
%  3 for >= operator
%  4 for <  operator
%  5 for <= operator
positionConstraints=[|14,3,1|11,3,2|12,5,3|4,2,3|];